
Gurobi 8.1.1 (linux64, Python) logging started Thu May 30 18:36:54 2019

Academic license - for non-commercial use only
No parameters matching 'TimeLimite' found

Gurobi 8.1.1 (linux64, Python) logging started Thu May 30 18:37:07 2019

Academic license - for non-commercial use only
No parameters matching 'TimeLimite' found

Gurobi 8.1.1 (linux64, Python) logging started Thu May 30 18:37:15 2019

Academic license - for non-commercial use only
No parameters matching 'TimeLimite' found
Optimize a model with 402 rows, 40602 columns and 81003 nonzeros
Variable types: 0 continuous, 40602 integer (40602 binary)
Coefficient statistics:
  Matrix range     [1e+00, 2e+03]
  Objective range  [1e+00, 1e+00]
  Bounds range     [1e+00, 1e+00]
  RHS range        [1e+00, 1e+00]
Found heuristic solution: objective 141.0000000
Presolve time: 0.07s
Presolved: 402 rows, 40602 columns, 81003 nonzeros
Variable types: 0 continuous, 40602 integer (40602 binary)

Root relaxation: objective 6.500000e+01, 1130 iterations, 0.06 seconds

    Nodes    |    Current Node    |     Objective Bounds      |     Work
 Expl Unexpl |  Obj  Depth IntInf | Incumbent    BestBd   Gap | It/Node Time

     0     0   65.00000    0   89  141.00000   65.00000  53.9%     -    0s
H    0     0                      76.0000000   65.00000  14.5%     -    0s
H    0     0                      71.0000000   65.00000  8.45%     -    0s
H    0     0                      69.0000000   65.00000  5.80%     -    1s
H    0     0                      68.0000000   65.00000  4.41%     -    1s
     0     0   65.00000    0  169   68.00000   65.00000  4.41%     -    1s
H    0     0                      67.0000000   65.00000  2.99%     -    1s
     0     0   65.00000    0  178   67.00000   65.00000  2.99%     -    1s
     0     0   65.00000    0  102   67.00000   65.00000  2.99%     -    2s
     0     0   65.00000    0   96   67.00000   65.00000  2.99%     -    3s
     0     2   65.00000    0   90   67.00000   65.00000  2.99%     -    4s
    31    35   65.00000    6  123   67.00000   65.00000  2.99%   204    7s
H   34    36                      66.0000000   65.00000  1.52%   187    7s
    40    40   65.00000    7   91   66.00000   65.00000  1.52%   160   10s
    41    41   65.00000    6   98   66.00000   65.00000  1.52%   156   15s
    42    42   65.00000    6  132   66.00000   65.00000  1.52%   152   38s
    45    45   65.00000    4   96   66.00000   65.00000  1.52%   587   40s
    52    50   65.00000    6  126   66.00000   65.00000  1.52%   508   46s
    56    52   65.00000    7  126   66.00000   65.00000  1.52%   471   50s
   149    81   65.00000   31  101   66.00000   65.00000  1.52%   447   55s
   397   186   65.00000   33  105   66.00000   65.00000  1.52%   205   60s
   630   322   65.00000   44  120   66.00000   65.00000  1.52%   162   65s
   881   492   65.00000   61  103   66.00000   65.00000  1.52%   134   70s
  1102   619   65.00000   72  108   66.00000   65.00000  1.52%   126   76s
  1381   760 infeasible   86        66.00000   65.00000  1.52%   113   82s
  1518   831 infeasible   94        66.00000   65.00000  1.52%   106   85s
  1818  1000   65.00000   94   88   66.00000   65.00000  1.52%  93.6   92s
  1975  1081   65.00000   90   84   66.00000   65.00000  1.52%  88.2   97s
  2102  1151   65.00000  107   85   66.00000   65.00000  1.52%  84.9  101s
  2398  1302   65.00000  111   81   66.00000   65.00000  1.52%  78.1  108s
  2559  1431 infeasible  126        66.00000   65.00000  1.52%  75.4  112s
  2734  1521   65.00000  141   83   66.00000   65.00000  1.52%  72.8  116s
  2896  1621   65.00000  148   80   66.00000   65.00000  1.52%  71.3  121s
  3057  1696   65.00000  163   74   66.00000   65.00000  1.52%  69.4  125s
  3227  1770   65.00000  179   76   66.00000   65.00000  1.52%  67.9  130s
  3614  1949   65.00000  205   82   66.00000   65.00000  1.52%  65.1  139s
  3814  2038 infeasible  226        66.00000   65.00000  1.52%  63.8  144s
  4020  2117 infeasible  199        66.00000   65.00000  1.52%  62.7  150s
  4232  2229   65.00000  190   71   66.00000   65.00000  1.52%  61.8  156s
  4473  2296   65.00000  189   73   66.00000   65.00000  1.52%  60.9  162s
  4707  2396   65.00000  200   72   66.00000   65.00000  1.52%  59.9  168s
  4972  2495   65.00000  204   73   66.00000   65.00000  1.52%  58.7  175s
  5218  2588   65.00000  218   75   66.00000   65.00000  1.52%  58.6  182s
  5512  2638   65.00000  237   71   66.00000   65.00000  1.52%  57.7  188s
  5807  2695   65.00000  232   70   66.00000   65.00000  1.52%  56.2  196s
  6164  2694 infeasible  221        66.00000   65.00000  1.52%  54.7  203s
  6492  2726   65.00000  218   73   66.00000   65.00000  1.52%  54.0  211s
  6844  2755   65.00000  188   71   66.00000   65.00000  1.52%  53.1  219s
  7176  2838 infeasible  217        66.00000   65.00000  1.52%  52.7  228s
  7538  2892   65.00000  232   73   66.00000   65.00000  1.52%  51.8  237s
  7903  2958   65.00000  225   72   66.00000   65.00000  1.52%  51.0  247s
  8311  2921   65.00000  203   76   66.00000   65.00000  1.52%  50.4  257s
  8736  2940   65.00000  203   67   66.00000   65.00000  1.52%  49.4  267s
  9113  2951 infeasible  233        66.00000   65.00000  1.52%  48.8  278s
  9493  2927 infeasible  210        66.00000   65.00000  1.52%  48.4  288s
  9935  2942 infeasible  212        66.00000   65.00000  1.52%  48.0  299s
 10423  2965 infeasible  222        66.00000   65.00000  1.52%  47.6  312s
 10898  2985 infeasible  216        66.00000   65.00000  1.52%  47.2  323s

Cutting planes:
  Gomory: 13
  Cover: 54
  Clique: 23
  Flow cover: 2
  Inf proof: 13
  Zero half: 7

Explored 11366 nodes (553547 simplex iterations) in 323.97 seconds
Thread count was 12 (of 12 available processors)

Solution count 7: 66 67 68 ... 141

Solve interrupted
Best objective 6.600000000000e+01, best bound 6.500000000000e+01, gap 1.5152%

Gurobi 8.1.1 (linux64, Python) logging started Thu May 30 18:43:17 2019

Academic license - for non-commercial use only
No parameters matching 'TimeLimite' found
Optimize a model with 402 rows, 40602 columns and 81003 nonzeros
Variable types: 0 continuous, 40602 integer (40602 binary)
Coefficient statistics:
  Matrix range     [1e+00, 2e+03]
  Objective range  [1e+00, 1e+00]
  Bounds range     [1e+00, 1e+00]
  RHS range        [1e+00, 1e+00]
Found heuristic solution: objective 141.0000000
Presolve time: 0.07s
Presolved: 402 rows, 40602 columns, 81003 nonzeros
Variable types: 0 continuous, 40602 integer (40602 binary)

Root relaxation: objective 6.500000e+01, 1130 iterations, 0.07 seconds

    Nodes    |    Current Node    |     Objective Bounds      |     Work
 Expl Unexpl |  Obj  Depth IntInf | Incumbent    BestBd   Gap | It/Node Time

     0     0   65.00000    0   89  141.00000   65.00000  53.9%     -    0s
H    0     0                      76.0000000   65.00000  14.5%     -    0s
H    0     0                      71.0000000   65.00000  8.45%     -    0s
H    0     0                      69.0000000   65.00000  5.80%     -    1s
H    0     0                      68.0000000   65.00000  4.41%     -    1s
     0     0   65.00000    0  169   68.00000   65.00000  4.41%     -    1s
H    0     0                      67.0000000   65.00000  2.99%     -    1s
     0     0   65.00000    0  178   67.00000   65.00000  2.99%     -    1s
     0     0   65.00000    0  102   67.00000   65.00000  2.99%     -    2s
     0     0   65.00000    0   96   67.00000   65.00000  2.99%     -    3s
     0     2   65.00000    0   90   67.00000   65.00000  2.99%     -    4s
    31    35   65.00000    6  123   67.00000   65.00000  2.99%   204    7s
H   34    36                      66.0000000   65.00000  1.52%   187    7s
    40    40   65.00000    7   91   66.00000   65.00000  1.52%   160   10s
    41    41   65.00000    6   98   66.00000   65.00000  1.52%   156   15s
    42    42   65.00000    6  132   66.00000   65.00000  1.52%   152   39s
    43    42   65.00000    7  109   66.00000   65.00000  1.52%   149   40s
    51    49   65.00000    6  210   66.00000   65.00000  1.52%   518   45s
    56    52   65.00000    7  126   66.00000   65.00000  1.52%   471   50s
   167    91   65.00000   33  103   66.00000   65.00000  1.52%   407   55s
   510   254 infeasible   34        66.00000   65.00000  1.52%   178   61s
   763   410 infeasible   56        66.00000   65.00000  1.52%   146   66s

Cutting planes:
  Gomory: 13
  Cover: 54
  Clique: 23
  Flow cover: 2
  Inf proof: 13
  Zero half: 7

Explored 994 nodes (150292 simplex iterations) in 69.21 seconds
Thread count was 12 (of 12 available processors)

Solution count 7: 66 67 68 ... 141

Solve interrupted
Best objective 6.600000000000e+01, best bound 6.500000000000e+01, gap 1.5152%

Gurobi 8.1.1 (linux64, Python) logging started Thu May 30 18:44:55 2019

Academic license - for non-commercial use only
Changed value of parameter TimeLimit to 1.0
   Prev: 1e+100  Min: 0.0  Max: 1e+100  Default: 1e+100
Optimize a model with 402 rows, 40602 columns and 81003 nonzeros
Variable types: 0 continuous, 40602 integer (40602 binary)
Coefficient statistics:
  Matrix range     [1e+00, 2e+03]
  Objective range  [1e+00, 1e+00]
  Bounds range     [1e+00, 1e+00]
  RHS range        [1e+00, 1e+00]
Found heuristic solution: objective 141.0000000
Presolve time: 0.07s
Presolved: 402 rows, 40602 columns, 81003 nonzeros
Variable types: 0 continuous, 40602 integer (40602 binary)

Root relaxation: objective 6.500000e+01, 1130 iterations, 0.06 seconds

    Nodes    |    Current Node    |     Objective Bounds      |     Work
 Expl Unexpl |  Obj  Depth IntInf | Incumbent    BestBd   Gap | It/Node Time

     0     0   65.00000    0   89  141.00000   65.00000  53.9%     -    0s
H    0     0                      76.0000000   65.00000  14.5%     -    0s
H    0     0                      71.0000000   65.00000  8.45%     -    0s
H    0     0                      70.0000000   65.00000  7.14%     -    1s

Explored 1 nodes (5418 simplex iterations) in 1.00 seconds
Thread count was 12 (of 12 available processors)

Solution count 4: 70 71 76 141 

Time limit reached
Best objective 7.000000000000e+01, best bound 6.500000000000e+01, gap 7.1429%
